163
127
303
196
27
303
563
267
348
276
51
34
233
53
33
167
173
134
32
53
59
46
55
43
24
69
70
115
138
75
62
80
49
68
61
189
143
116
137
206
70
253
279
264
625
104
91
172
158
175
60
79
38
78
214
86
50
88
76
106
144
133
46
49
15
33
95
64
53
272
269
156
18
343
298
315
549
253
118
127
286
114
242
45
